num_posiciones_existentes=3;

ciudades=[|3,3
|5,5
|2,6|];

tamano_matriz=10;

matriz_segmento_poblacion=[|26, 1, 1, 4, 5, 6, 7, 8, 9, 10
                            |1, 1, 1, 5, 6, 7, 8, 9, 10, 1
                            |1, 10, 5, 6, 7, 8, 9, 10, 1, 2
                            |4, 5, 6, 7, 8, 9, 10, 1, 2, 3
                            |5, 6, 7, 8, 9, 10, 1, 2, 30, 4
                            |6, 7, 8, 9, 10, 1, 2, 3, 4, 5
                            |7, 8, 9, 10, 1, 2, 30, 4, 5, 6
                            |8, 9, 10, 1, 2, 3, 4, 5, 6, 7
                            |9, 10, 1, 2, 3, 40, 5, 6, 7, 8
                            |10, 1, 2, 3, 4, 5, 6, 7, 8, 9|];

matriz_entorno_empresarial=[|9, 9, 5, 4, 3, 2, 1, 8, 9, 6
                            |6, 5, 4, 3, 2, 1, 70, 8, 9, 5
                            |9, 4, 3, 2, 1, 7, 6, 8, 5, 4
                            |4, 3, 2, 1, 7, 6, 5, 8, 4, 3
                            |3, 2, 1, 7, 6, 5, 4, 8, 3, 2
                            |2, 1, 7, 6, 5, 4, 3, 40, 2, 1
                            |9, 7, 6, 5, 4, 3, 2, 8, 1, 7
                            |8, 9, 7, 6, 5, 4, 3, 2, 1, 9
                            |9, 8, 6, 5, 4, 3, 2, 1, 7, 6
                            |6, 50, 4, 3, 20, 1, 9, 8, 7, 40|];

num_programas=4;
